nohup: ignoring input
miplib2017_binary-small
symmetric
./result/miplib2017/miplib2017_purebinary_solved.txt
original problem has 12640 variables (6320 bin, 0 int, 0 impl, 6320 cont) and 79 constraints
h80x6320


miplib2017_binary-34
Number of variables 12640
Number of binary variables 6320
* Model status: sollimit
* Solving time: 1.061259
* number of sol :  1
* Model status: optimal
* Solving time: 0.083634
* number of sol :  2
original problem has 3862 variables (3862 bin, 0 int, 0 impl, 0 cont) and 16399 constraints
hanoi5


miplib2017_binary-34
Number of variables 3862
Number of binary variables 3862
* Model status: timelimit
* Solving time: 7200.001772
* number of sol :  0
* Model status: timelimit
* Solving time: 7200.205056
* number of sol :  0
original problem has 214 variables (214 bin, 0 int, 0 impl, 0 cont) and 5375 constraints
iis-glass-cov


miplib2017_binary-34
Number of variables 214
Number of binary variables 214
* Model status: sollimit
* Solving time: 0.027843999999999997
* number of sol :  1
* Model status: nodelimit
* Solving time: 9.902022
* number of sol :  89
wrote problem to file /home/liudefen/projects/ML4LocalBranch_extend/data/generated_instances/miplib2017_binary/-small/transformedmodel/miplib2017_binary-34_transformed.cip
original problem has 214 variables (214 bin, 0 int, 0 impl, 0 cont) and 5375 constraints
32.0
32.0
original problem has 297 variables (297 bin, 0 int, 0 impl, 0 cont) and 9727 constraints
iis-hc-cov


miplib2017_binary-35
Number of variables 297
Number of binary variables 297
* Model status: sollimit
* Solving time: 0.07194099999999999
* number of sol :  2
* Model status: nodelimit
* Solving time: 11.297529
* number of sol :  81
wrote problem to file /home/liudefen/projects/ML4LocalBranch_extend/data/generated_instances/miplib2017_binary/-small/transformedmodel/miplib2017_binary-35_transformed.cip
original problem has 297 variables (297 bin, 0 int, 0 impl, 0 cont) and 9727 constraints
29.0
29.0
original problem has 20315 variables (20315 bin, 0 int, 0 impl, 0 cont) and 39 constraints
irp


miplib2017_binary-36
Number of variables 20315
Number of binary variables 20315
* Model status: sollimit
* Solving time: 0.978209
* number of sol :  1
* Model status: nodelimit
* Solving time: 5.215822
* number of sol :  1
wrote problem to file /home/liudefen/projects/ML4LocalBranch_extend/data/generated_instances/miplib2017_binary/-small/transformedmodel/miplib2017_binary-36_transformed.cip
original problem has 20315 variables (20315 bin, 0 int, 0 impl, 0 cont) and 39 constraints
12981.481309
12981.481309
Warning line 2117: row "maxcp0" for objective function "N" ignored
Warning line 2118: row "maxcp1" for objective function "N" ignored
original problem has 157591 variables (157591 bin, 0 int, 0 impl, 0 cont) and 2116 constraints
ivu52


miplib2017_binary-37
Number of variables 157591
Number of binary variables 157591
* Model status: timelimit
* Solving time: 7200.076877
* number of sol :  0
* Model status: timelimit
* Solving time: 7200.130888
* number of sol :  0
original problem has 830 variables (830 bin, 0 int, 0 impl, 0 cont) and 8429 constraints
mine-166-5


miplib2017_binary-37
Number of variables 830
Number of binary variables 830
* Model status: sollimit
* Solving time: 0.02368
* number of sol :  1
* Model status: nodelimit
* Solving time: 7.446505
* number of sol :  3
wrote problem to file /home/liudefen/projects/ML4LocalBranch_extend/data/generated_instances/miplib2017_binary/-small/transformedmodel/miplib2017_binary-37_transformed.cip
original problem has 830 variables (830 bin, 0 int, 0 impl, 0 cont) and 8429 constraints
-446347827.24447286
-446347827.24447286
original problem has 900 variables (900 bin, 0 int, 0 impl, 0 cont) and 6270 constraints
mine-90-10


miplib2017_binary-38
Number of variables 900
Number of binary variables 900
* Model status: sollimit
* Solving time: 0.016676
* number of sol :  1
* Model status: nodelimit
* Solving time: 21.144542
* number of sol :  2
wrote problem to file /home/liudefen/projects/ML4LocalBranch_extend/data/generated_instances/miplib2017_binary/-small/transformedmodel/miplib2017_binary-38_transformed.cip
original problem has 900 variables (900 bin, 0 int, 0 impl, 0 cont) and 6270 constraints
-66453872.625893824
-66453872.625893824
original problem has 10724 variables (10724 bin, 0 int, 0 impl, 0 cont) and 2054 constraints
mitre


miplib2017_binary-39
Number of variables 10724
Number of binary variables 10724
* Model status: sollimit
* Solving time: 5.797595
* number of sol :  1
* Model status: sollimit
* Solving time: 6.731072
* number of sol :  2
wrote problem to file /home/liudefen/projects/ML4LocalBranch_extend/data/generated_instances/miplib2017_binary/-small/transformedmodel/miplib2017_binary-39_transformed.cip
original problem has 10724 variables (10724 bin, 0 int, 0 impl, 0 cont) and 1746 constraints
7885.0
7885.0
original problem has 2655 variables (2655 bin, 0 int, 0 impl, 0 cont) and 146 constraints
mod010


miplib2017_binary-40
Number of variables 2655
Number of binary variables 2655
* Model status: sollimit
* Solving time: 0.706962
* number of sol :  1
* Model status: optimal
* Solving time: 1.077016
* number of sol :  1
solution value 0 violates bounds of <t_C181.>[1,1] by 1
original problem has 8100 variables (8100 bin, 0 int, 0 impl, 0 cont) and 285 constraints
n2seq36f


miplib2017_binary-40
Number of variables 8100
Number of binary variables 8100
* Model status: sollimit
* Solving time: 0.172735
* number of sol :  1
* Model status: nodelimit
* Solving time: 6.219027
* number of sol :  5
wrote problem to file /home/liudefen/projects/ML4LocalBranch_extend/data/generated_instances/miplib2017_binary/-small/transformedmodel/miplib2017_binary-40_transformed.cip
Traceback (most recent call last):
  File "initialize_MILPs.py", line 31, in <module>
    mllb.generate_instances_miplib2017_binary()
  File "/home/liudefen/projects/ML4LocalBranch_extend/instance_generation.py", line 537, in generate_instances_miplib2017_binary
    model.readProblem(filename)
  File "src/pyscipopt/scip.pyx", line 4750, in pyscipopt.scip.Model.readProblem
  File "src/pyscipopt/scip.pyx", line 235, in pyscipopt.scip.PY_SCIP_CALL
OSError: SCIP: read error!
